ATOMIC_SPECIES
H    1.008  H_ONCV_PBE-1.0.upf
C   12.011  C_ONCV_PBE-1.0.upf
O   15.999  O_ONCV_PBE-1.0.upf
Fe   55.845  Fe_ONCV_PBE-1.0.upf

NUMERICAL_ORBITAL
H_gga_6au_100Ry_2s1p.orb
C_gga_7au_100Ry_2s2p1d.orb
O_gga_7au_100Ry_2s2p1d.orb
Fe_gga_7au_100Ry_4s2p2d1f.orb

LATTICE_CONSTANT
1.889726

LATTICE_VECTORS
9.979798926381  0.000000000000  0.000000000000
0.000000000000  19.64039788710  0.000000000000
-0.76395797781  0.000000000000  12.66177256785

ATOMIC_POSITIONS
Direct

H 
0.000
2
0.974531702526  0.395024946131  0.176483875634  1  1  1  
0.482811098411  0.465325083400  0.169758064112  1  1  1  

C 
0.000
37
0.029443602715  0.009461774353  0.690172337431  0  0  0  
0.529443602715  0.009461774353  0.690172337431  0  0  0  
0.253665471421  0.020797980998  0.089195364174  0  0  0  
0.753665471421  0.020797980998  0.089195364174  0  0  0  
0.090805919834  0.023414585294  0.484136599160  0  0  0  
0.590805919834  0.023414585294  0.484136599160  0  0  0  
0.491473601100  0.065579289526  0.891711416916  0  0  0  
0.991473601100  0.065579289526  0.891711416916  0  0  0  
0.323335936652  0.074855855278  0.298394175662  0  0  0  
0.823335936652  0.074855855278  0.298394175662  0  0  0  
0.233721629564  0.102189744252  0.768355717128  1  1  1  
0.733721629564  0.102189744252  0.768355717128  1  1  1  
0.061885457063  0.119240456864  0.176164536809  1  1  1  
0.561885457063  0.119240456864  0.176164536809  1  1  1  
0.968588006033  0.171145761899  0.568805448068  1  1  1  
0.469203562803  0.172473923138  0.569934040718  1  1  1  
0.794373338901  0.184875784862  0.974597224828  1  1  1  
0.293669152689  0.184953300646  0.974854479066  1  1  1  
0.208096228961  0.204739538961  0.449535850454  1  1  1  
0.707704521242  0.204911046975  0.448479980079  1  1  1  
0.033008941110  0.217709853211  0.853724944675  1  1  1  
0.535368551245  0.218986236533  0.853904261098  1  1  1  
0.438648693604  0.269179316002  0.246849791164  1  1  1  
0.940610950708  0.269375353812  0.247802040356  1  1  1  
0.765628485557  0.287762139926  0.653064418074  1  1  1  
0.271829025457  0.288952257082  0.658838868668  1  1  1  
0.678412671206  0.311099993483  0.120093563359  1  1  1  
0.182685124640  0.314364664365  0.120821712989  1  1  1  
0.008815473443  0.322970048115  0.529336312016  1  1  1  
0.511178606732  0.327942863231  0.538755806286  1  1  1  
0.912841255869  0.366039641250  0.937247752904  1  1  1  
0.248753797030  0.366777126892  0.333539518437  1  1  1  
0.415535306614  0.366837141962  0.925900778794  1  1  1  
0.743466798229  0.367481503075  0.332172932121  1  1  1  
0.973055383080  0.379911719873  0.731505023340  1  1  1  
0.471467941383  0.409852714303  0.175828053705  1  1  1  
0.464966112998  0.413427420221  0.736656406961  1  1  1  

O 
0.000
1
0.467435524903  0.474725086138  0.734868259972  1  1  1  

Fe
2.000
80
0.131804283247  0.025789190648  0.812574830499  0  0  0  
0.631804283247  0.025789190648  0.812574830499  0  0  0  
0.252151551014  0.030736651494  0.419436941800  0  0  0  
0.752151551014  0.030736651494  0.419436941800  0  0  0  
0.189555235444  0.030795170058  0.618543025153  0  0  0  
0.689555235444  0.030795170058  0.618543025153  0  0  0  
0.081109657900  0.033992411611  0.019457615048  0  0  0  
0.581109657900  0.033992411611  0.019457615048  0  0  0  
0.167869136529  0.037364101800  0.214033464067  0  0  0  
0.667869136529  0.037364101800  0.214033464067  0  0  0  
0.383236599703  0.038060511293  0.762775050834  0  0  0  
0.883236599703  0.038060511293  0.762775050834  0  0  0  
0.437865606152  0.039671410664  0.564034566648  0  0  0  
0.937865606152  0.039671410664  0.564034566648  0  0  0  
0.324734261070  0.044901871907  0.960471632794  0  0  0  
0.824734261070  0.044901871907  0.960471632794  0  0  0  
0.412834241102  0.048361660760  0.164590854339  0  0  0  
0.912834241102  0.048361660760  0.164590854339  0  0  0  
0.000966667431  0.049919770982  0.357478513132  0  0  0  
0.500966667431  0.049919770982  0.357478513132  0  0  0  
0.108217474296  0.125918495448  0.496029749662  1  1  1  
0.608217474296  0.125918495448  0.496029749662  1  1  1  
0.224665199613  0.131614379595  0.091193529371  1  1  1  
0.724665199613  0.131614379595  0.091193529371  1  1  1  
0.056747742325  0.134454134132  0.698359920984  1  1  1  
0.556747742325  0.134454134132  0.698359920984  1  1  1  
0.142016595263  0.137431974400  0.892344385096  1  1  1  
0.642016595263  0.137431974400  0.892344385096  1  1  1  
0.359121888121  0.140481060416  0.442054434935  1  1  1  
0.859121888121  0.140481060416  0.442054434935  1  1  1  
0.170965821391  0.143074127258  0.307217706756  1  1  1  
0.670965821391  0.143074127258  0.307217706756  1  1  1  
0.303318830707  0.147169744964  0.644908427883  1  1  1  
0.803318830707  0.147169744964  0.644908427883  1  1  1  
0.385750839060  0.148743064194  0.849261078135  1  1  1  
0.885750839060  0.148743064194  0.849261078135  1  1  1  
0.470496115968  0.149063861123  0.040420276474  1  1  1  
0.970496115968  0.149063861123  0.040420276474  1  1  1  
0.413692214654  0.159505616841  0.250303078060  1  1  1  
0.913692214654  0.159505616841  0.250303078060  1  1  1  
0.587784457700  0.229951838761  0.172789264574  1  1  1  
0.089169782940  0.230418730983  0.172302012469  1  1  1  
0.197621683354  0.239534011273  0.778198511089  1  1  1  
0.118014401600  0.239971801033  0.576312398714  1  1  1  
0.031185935740  0.240601102472  0.383074793616  1  1  1  
0.531760875825  0.240723717236  0.380348236960  1  1  1  
0.701058120860  0.240991082870  0.777406506899  1  1  1  
0.614620592272  0.241643905827  0.572695089777  1  1  1  
0.332078411072  0.246095722439  0.114813432837  1  1  1  
0.833664686946  0.246282191198  0.115781352425  1  1  1  
0.644646799490  0.248259645272  0.981642091881  1  1  1  
0.143610926216  0.249867201941  0.980375480339  1  1  1  
0.860266877938  0.251109619712  0.531450462856  1  1  1  
0.360601670805  0.253168910613  0.531742529752  1  1  1  
0.446927738984  0.254252176432  0.723624999772  1  1  1  
0.277554522736  0.256602368231  0.332366489912  1  1  1  
0.776187482673  0.257026256543  0.329899504467  1  1  1  
0.943747282446  0.257357775962  0.725820487872  1  1  1  
0.395046016943  0.263339999491  0.926990940653  1  1  1  
0.894388966340  0.263986856225  0.926707583990  1  1  1  
0.675248317232  0.342255340013  0.462486372228  1  1  1  
0.089236866400  0.342371403994  0.256504518586  1  1  1  
0.175867053315  0.342481457913  0.461073910349  1  1  1  
0.004719037045  0.342944838038  0.064417933723  1  1  1  
0.568431066903  0.344270198825  0.856399844115  1  1  1  
0.588569548792  0.345467074296  0.249577270203  1  1  1  
0.506342730445  0.348286414737  0.060138262147  1  1  1  
0.065351476491  0.349913250392  0.858509695005  1  1  1  
0.116448217918  0.350256247123  0.658456244161  1  1  1  
0.617581306118  0.350865882110  0.667526843638  1  1  1  
0.306397115385  0.351170051476  0.798693098844  1  1  1  
0.334879465416  0.351715910419  0.209992496484  1  1  1  
0.834054139075  0.352191986467  0.208435106256  1  1  1  
0.918454352473  0.355213531802  0.401834561976  1  1  1  
0.420885627612  0.355388529103  0.407516030417  1  1  1  
0.750342700742  0.358622341246  0.001499468250  1  1  1  
0.256669413861  0.360122168286  0.000281453217  1  1  1  
0.869362608770  0.363230302896  0.608855906140  1  1  1  
0.815561361942  0.363340000713  0.804241481668  1  1  1  
0.363172932001  0.368070673764  0.608044778880  1  1  1  
